200 200
14 78
27 27
17 35
39 21
66 16
37 49
5 19
9 16
19 16
26 12
7 26
21 21
5 14
12 7
1 3
8 19
5 19
14 37
70 20
31 14
8 25
6 16
15 35
12 19
48 11
68 16
19 18
50 16
11 62
22 40
15 80
2 12
25 4
20 22
12 44
29 37
25 7
4 18
18 8
7 16
20 8
17 76
10 2
30 74
37 11
7 32
17 16
17 76
2 13
10 8
5 25
2 1
3 4
5 8
1 4
1 3
4 1
7 3
19 9
10 22
12 47
11 32
36 6
8 34
9 29
2 5
7 18
9 16
12 18
10 20
11 11
15 40
10 13
2 9
9 15
12 6
13 2
19 4
12 12
1 2
20 10
5 22
36 7
6 1
23 24
3 9
6 2
18 7
14 15
22 18
19 3
105 32
7 40
71 35
101 19
4 8
11 11
